(set-logic ALL)
; root: smt_verif_LessThanPower_0__LessThanPower_0$LessThanPower_0$contract$0_entry
(declare-const smt_verif_LessThanPower_0__LessThanPower_0$LessThanPower_0$contract$0_entry__arg0 Int)
(declare-const smt_verif_LessThanPower_0__LessThanPower_0$LessThanPower_0$contract$0_entry__arg1 Int)
(assert true)
(assert (not (let ((__let9 (= (let ((__let0 (mod smt_verif_LessThanPower_0__LessThanPower_0$LessThanPower_0$contract$0_entry__arg1 21888242871839275222246405745257275088548364400416034343698204186575808495617))) (let ((__let1 ((_ int_to_bv 254) __let0))) (let ((__let2 (mod 2 21888242871839275222246405745257275088548364400416034343698204186575808495617))) (let ((__let3 ((_ int_to_bv 254) __let2))) (let ((__let4 (bvlshr __let1 __let3))) (let ((__let5 (ubv_to_int __let4))) (let ((__let6 (mod __let5 21888242871839275222246405745257275088548364400416034343698204186575808495617))) (let ((__let7 (> __let6 0))) (let ((__let8 (ite __let7 0 1))) __let8))))))))) smt_verif_LessThanPower_0__LessThanPower_0$LessThanPower_0$contract$0_entry__arg0))) __let9)))
; check-sat stage=target[0] expect=unsat
(check-sat)
(get-model)
(assert (let ((__let9 (= (let ((__let0 (mod smt_verif_LessThanPower_0__LessThanPower_0$LessThanPower_0$contract$0_entry__arg1 21888242871839275222246405745257275088548364400416034343698204186575808495617))) (let ((__let1 ((_ int_to_bv 254) __let0))) (let ((__let2 (mod 2 21888242871839275222246405745257275088548364400416034343698204186575808495617))) (let ((__let3 ((_ int_to_bv 254) __let2))) (let ((__let4 (bvlshr __let1 __let3))) (let ((__let5 (ubv_to_int __let4))) (let ((__let6 (mod __let5 21888242871839275222246405745257275088548364400416034343698204186575808495617))) (let ((__let7 (> __let6 0))) (let ((__let8 (ite __let7 0 1))) __let8))))))))) smt_verif_LessThanPower_0__LessThanPower_0$LessThanPower_0$contract$0_entry__arg0))) __let9))
(assert (not (let ((__let10 (mod smt_verif_LessThanPower_0__LessThanPower_0$LessThanPower_0$contract$0_entry__arg0 21888242871839275222246405745257275088548364400416034343698204186575808495617))) (let ((__let11 (mod 1 21888242871839275222246405745257275088548364400416034343698204186575808495617))) (let ((__let12 (- __let10 __let11))) (let ((__let13 (mod __let12 21888242871839275222246405745257275088548364400416034343698204186575808495617))) (let ((__let14 (mod smt_verif_LessThanPower_0__LessThanPower_0$LessThanPower_0$contract$0_entry__arg0 21888242871839275222246405745257275088548364400416034343698204186575808495617))) (let ((__let15 (mod __let13 21888242871839275222246405745257275088548364400416034343698204186575808495617))) (let ((__let16 (* __let14 __let15))) (let ((__let17 (mod __let16 21888242871839275222246405745257275088548364400416034343698204186575808495617))) (let ((__let18 (= __let17 0))) __let18)))))))))))
; check-sat stage=target[1] expect=unsat
(check-sat)
(assert (let ((__let10 (mod smt_verif_LessThanPower_0__LessThanPower_0$LessThanPower_0$contract$0_entry__arg0 21888242871839275222246405745257275088548364400416034343698204186575808495617))) (let ((__let11 (mod 1 21888242871839275222246405745257275088548364400416034343698204186575808495617))) (let ((__let12 (- __let10 __let11))) (let ((__let13 (mod __let12 21888242871839275222246405745257275088548364400416034343698204186575808495617))) (let ((__let14 (mod smt_verif_LessThanPower_0__LessThanPower_0$LessThanPower_0$contract$0_entry__arg0 21888242871839275222246405745257275088548364400416034343698204186575808495617))) (let ((__let15 (mod __let13 21888242871839275222246405745257275088548364400416034343698204186575808495617))) (let ((__let16 (* __let14 __let15))) (let ((__let17 (mod __let16 21888242871839275222246405745257275088548364400416034343698204186575808495617))) (let ((__let18 (= __let17 0))) __let18))))))))))

(reset)
(set-logic ALL)
; root: smt_verif_LessThanPower_0__LessThanPower_0$LessThanPower_0$contract$0_entry
(declare-const smt_verif_LessThanPower_0__LessThanPower_0$LessThanPower_0$contract$0_entry__arg0 Int)
(declare-const smt_verif_LessThanPower_0__LessThanPower_0$LessThanPower_0$contract$0_entry__arg1 Int)
(assert true)
(assert (let ((__let31 (= (let ((__let22 (mod smt_verif_LessThanPower_0__LessThanPower_0$LessThanPower_0$contract$0_entry__arg1 21888242871839275222246405745257275088548364400416034343698204186575808495617))) (let ((__let23 ((_ int_to_bv 254) __let22))) (let ((__let24 (mod 2 21888242871839275222246405745257275088548364400416034343698204186575808495617))) (let ((__let25 ((_ int_to_bv 254) __let24))) (let ((__let26 (bvlshr __let23 __let25))) (let ((__let27 (ubv_to_int __let26))) (let ((__let28 (mod __let27 21888242871839275222246405745257275088548364400416034343698204186575808495617))) (let ((__let29 (> __let28 0))) (let ((__let30 (ite __let29 0 1))) __let30))))))))) smt_verif_LessThanPower_0__LessThanPower_0$LessThanPower_0$contract$0_entry__arg0))) __let31))
(assert (let ((__let32 (mod smt_verif_LessThanPower_0__LessThanPower_0$LessThanPower_0$contract$0_entry__arg0 21888242871839275222246405745257275088548364400416034343698204186575808495617))) (let ((__let33 (mod 1 21888242871839275222246405745257275088548364400416034343698204186575808495617))) (let ((__let34 (- __let32 __let33))) (let ((__let35 (mod __let34 21888242871839275222246405745257275088548364400416034343698204186575808495617))) (let ((__let36 (mod smt_verif_LessThanPower_0__LessThanPower_0$LessThanPower_0$contract$0_entry__arg0 21888242871839275222246405745257275088548364400416034343698204186575808495617))) (let ((__let37 (mod __let35 21888242871839275222246405745257275088548364400416034343698204186575808495617))) (let ((__let38 (* __let36 __let37))) (let ((__let39 (mod __let38 21888242871839275222246405745257275088548364400416034343698204186575808495617))) (let ((__let40 (= __let39 0))) __let40))))))))))
(assert (not (let ((__let41 (< smt_verif_LessThanPower_0__LessThanPower_0$LessThanPower_0$contract$0_entry__arg1 4))) (let ((__let42 (ite __let41 1 0))) (let ((__let43 (= smt_verif_LessThanPower_0__LessThanPower_0$LessThanPower_0$contract$0_entry__arg0 __let42))) __let43)))))
; check-sat stage=post[0] expect=unsat
(check-sat)
(assert (let ((__let41 (< smt_verif_LessThanPower_0__LessThanPower_0$LessThanPower_0$contract$0_entry__arg1 4))) (let ((__let42 (ite __let41 1 0))) (let ((__let43 (= smt_verif_LessThanPower_0__LessThanPower_0$LessThanPower_0$contract$0_entry__arg0 __let42))) __let43))))
(assert (not (let ((__let44 (< smt_verif_LessThanPower_0__LessThanPower_0$LessThanPower_0$contract$0_entry__arg1 4))) (let ((__let45 (ite __let44 1 0))) (let ((__let46 (= smt_verif_LessThanPower_0__LessThanPower_0$LessThanPower_0$contract$0_entry__arg0 __let45))) __let46)))))
; check-sat stage=post[1] expect=unsat
(check-sat)
(assert (let ((__let44 (< smt_verif_LessThanPower_0__LessThanPower_0$LessThanPower_0$contract$0_entry__arg1 4))) (let ((__let45 (ite __let44 1 0))) (let ((__let46 (= smt_verif_LessThanPower_0__LessThanPower_0$LessThanPower_0$contract$0_entry__arg0 __let45))) __let46))))
